NAME : kroA200
TYPE : OP
DIMENSION : 200
COST_LIMIT : 14684
ROUTE_NODES : 102
ROUTE_SCORE : 6114
ROUTE_COST : 14673
NODE_SEQUENCE_SECTION
1
145
123
15
13
177
67
31
47
157
107
109
6
54
75
155
183
22
134
8
17
25
143
90
34
103
114
98
58
141
171
200
88
148
28
39
130
71
38
56
152
178
196
5
105
43
137
133
176
113
195
182
94
95
91
76
70
144
150
173
23
164
140
21
154
89
59
3
73
189
69
142
74
57
36
100
156
33
81
45
197
104
165
96
166
52
11
84
170
122
116
188
44
63
16
118
37
184
29
172
46
53
-1
DEPOT_SECTION
1
-1
EOF
